benchmarks_CP/INST_36x36/45/inst36x36_45_45.dzn
S=6;
start=[|
4,	3,	32,	-1,	-1,	25,	14,	16,	-1,	-1,	-1,	-1,	-1,	36,	11,	-1,	-1,	10,	-1,	-1,	27,	-1,	5,	35,	-1,	-1,	-1,	-1,	-1,	18,	-1,	-1,	-1,	-1,	-1,	-1|
-1,	-1,	12,	-1,	-1,	-1,	7,	28,	-1,	-1,	-1,	-1,	-1,	-1,	5,	-1,	2,	25,	29,	30,	6,	8,	-1,	-1,	-1,	-1,	33,	-1,	27,	9,	-1,	-1,	-1,	-1,	17,	18|
10,	34,	26,	-1,	-1,	-1,	-1,	4,	-1,	-1,	-1,	-1,	16,	-1,	-1,	-1,	-1,	-1,	-1,	11,	12,	-1,	17,	15,	25,	-1,	-1,	-1,	-1,	-1,	13,	-1,	20,	24,	-1,	-1|
-1,	-1,	-1,	20,	5,	-1,	10,	29,	-1,	-1,	27,	-1,	-1,	17,	-1,	35,	21,	9,	-1,	-1,	-1,	-1,	-1,	-1,	26,	-1,	-1,	-1,	6,	-1,	-1,	-1,	30,	25,	-1,	7|
-1,	6,	17,	14,	8,	-1,	34,	-1,	32,	-1,	-1,	20,	-1,	-1,	33,	26,	-1,	7,	31,	-1,	-1,	4,	-1,	36,	-1,	28,	-1,	-1,	2,	5,	3,	-1,	35,	19,	-1,	-1|
11,	-1,	9,	35,	31,	29,	19,	26,	15,	-1,	-1,	-1,	-1,	27,	-1,	-1,	-1,	22,	25,	-1,	32,	-1,	33,	-1,	1,	10,	16,	-1,	17,	-1,	36,	14,	5,	-1,	21,	-1|
5,	-1,	-1,	-1,	2,	-1,	36,	-1,	-1,	-1,	1,	16,	6,	-1,	-1,	32,	18,	-1,	11,	12,	-1,	-1,	-1,	-1,	9,	34,	14,	23,	-1,	-1,	-1,	-1,	28,	21,	-1,	19|
32,	-1,	-1,	-1,	13,	14,	-1,	-1,	-1,	3,	4,	22,	27,	5,	-1,	-1,	-1,	34,	-1,	36,	-1,	-1,	23,	-1,	-1,	17,	-1,	19,	24,	-1,	-1,	-1,	8,	-1,	-1,	12|
6,	-1,	-1,	-1,	-1,	-1,	-1,	-1,	12,	-1,	20,	-1,	-1,	-1,	25,	9,	4,	-1,	-1,	-1,	14,	-1,	16,	2,	-1,	5,	-1,	-1,	-1,	26,	-1,	-1,	10,	13,	27,	-1|
35,	-1,	8,	-1,	27,	-1,	9,	15,	14,	18,	-1,	5,	36,	10,	29,	11,	26,	-1,	-1,	-1,	-1,	-1,	3,	-1,	16,	12,	-1,	-1,	-1,	-1,	-1,	-1,	-1,	-1,	-1,	33|
25,	18,	22,	16,	12,	-1,	31,	-1,	19,	24,	-1,	7,	-1,	-1,	-1,	-1,	-1,	35,	-1,	-1,	30,	29,	-1,	10,	-1,	1,	-1,	-1,	-1,	-1,	23,	11,	-1,	36,	-1,	-1|
-1,	17,	31,	-1,	1,	7,	-1,	-1,	-1,	10,	-1,	25,	-1,	19,	24,	8,	12,	14,	6,	-1,	35,	-1,	32,	-1,	2,	3,	-1,	13,	30,	36,	16,	5,	-1,	-1,	-1,	20|
13,	1,	15,	-1,	10,	12,	-1,	-1,	30,	23,	-1,	-1,	11,	-1,	-1,	-1,	-1,	16,	24,	-1,	-1,	-1,	-1,	-1,	22,	-1,	3,	-1,	-1,	-1,	-1,	-1,	25,	17,	33,	29|
-1,	-1,	2,	17,	-1,	-1,	-1,	33,	9,	-1,	-1,	-1,	-1,	28,	-1,	5,	-1,	27,	22,	-1,	13,	26,	-1,	12,	4,	-1,	6,	-1,	1,	11,	30,	24,	-1,	7,	-1,	34|
-1,	30,	-1,	-1,	34,	-1,	25,	-1,	-1,	-1,	-1,	-1,	15,	8,	-1,	23,	22,	-1,	33,	5,	11,	-1,	10,	-1,	24,	-1,	13,	17,	7,	-1,	9,	26,	-1,	-1,	31,	-1|
33,	-1,	6,	-1,	-1,	4,	-1,	31,	2,	28,	-1,	-1,	24,	18,	7,	-1,	25,	26,	-1,	-1,	15,	19,	-1,	27,	5,	-1,	-1,	16,	29,	-1,	-1,	22,	12,	35,	20,	-1|
-1,	-1,	19,	-1,	11,	-1,	4,	-1,	-1,	22,	-1,	34,	-1,	-1,	-1,	-1,	36,	29,	-1,	-1,	23,	16,	18,	-1,	-1,	-1,	-1,	-1,	-1,	10,	15,	28,	2,	27,	8,	-1|
-1,	7,	-1,	-1,	-1,	-1,	24,	13,	16,	6,	12,	26,	-1,	-1,	17,	14,	9,	2,	30,	29,	-1,	-1,	4,	8,	21,	-1,	32,	34,	-1,	-1,	11,	-1,	-1,	-1,	-1,	-1|
-1,	-1,	-1,	-1,	-1,	-1,	-1,	-1,	-1,	9,	-1,	15,	-1,	-1,	-1,	-1,	11,	30,	23,	-1,	-1,	21,	-1,	-1,	8,	-1,	27,	-1,	13,	-1,	34,	35,	17,	28,	32,	16|
21,	5,	-1,	-1,	32,	-1,	-1,	1,	-1,	36,	3,	-1,	-1,	24,	-1,	33,	-1,	-1,	17,	20,	-1,	-1,	27,	16,	-1,	22,	-1,	35,	-1,	19,	-1,	29,	13,	-1,	-1,	-1|
-1,	-1,	-1,	1,	-1,	16,	-1,	22,	-1,	12,	19,	-1,	7,	-1,	9,	-1,	-1,	-1,	-1,	35,	-1,	-1,	2,	11,	-1,	26,	5,	-1,	-1,	24,	-1,	8,	-1,	30,	25,	-1|
-1,	-1,	14,	-1,	22,	-1,	17,	-1,	10,	-1,	26,	-1,	-1,	-1,	34,	-1,	35,	23,	-1,	13,	-1,	-1,	-1,	-1,	-1,	-1,	-1,	-1,	-1,	16,	19,	-1,	-1,	-1,	-1,	-1|
28,	-1,	-1,	31,	-1,	24,	13,	-1,	34,	-1,	5,	32,	14,	26,	3,	-1,	16,	-1,	12,	-1,	-1,	18,	-1,	30,	-1,	15,	-1,	-1,	-1,	-1,	-1,	-1,	-1,	22,	-1,	10|
-1,	29,	-1,	-1,	-1,	-1,	28,	-1,	35,	-1,	-1,	21,	25,	22,	-1,	10,	17,	-1,	-1,	-1,	-1,	5,	7,	31,	3,	6,	2,	12,	-1,	4,	20,	9,	-1,	-1,	-1,	-1|
-1,	-1,	36,	10,	25,	32,	15,	-1,	-1,	-1,	-1,	-1,	3,	-1,	35,	-1,	29,	-1,	8,	33,	-1,	-1,	-1,	17,	-1,	-1,	-1,	-1,	-1,	-1,	-1,	-1,	21,	-1,	22,	23|
19,	-1,	35,	-1,	17,	20,	22,	6,	-1,	-1,	-1,	-1,	-1,	-1,	-1,	18,	5,	32,	27,	-1,	-1,	11,	1,	23,	-1,	-1,	-1,	-1,	36,	-1,	26,	33,	-1,	-1,	-1,	-1|
23,	22,	-1,	-1,	-1,	-1,	32,	14,	8,	11,	-1,	-1,	-1,	-1,	-1,	36,	-1,	-1,	35,	-1,	18,	25,	31,	13,	-1,	-1,	34,	-1,	-1,	33,	28,	20,	-1,	-1,	1,	30|
12,	-1,	28,	-1,	-1,	-1,	5,	3,	36,	-1,	18,	10,	-1,	13,	31,	-1,	8,	6,	-1,	-1,	24,	-1,	-1,	26,	7,	-1,	-1,	-1,	4,	-1,	27,	-1,	-1,	-1,	-1,	35|
-1,	-1,	-1,	2,	-1,	-1,	21,	-1,	-1,	-1,	-1,	13,	-1,	16,	-1,	-1,	10,	33,	-1,	-1,	-1,	-1,	-1,	-1,	6,	-1,	-1,	28,	18,	-1,	24,	-1,	-1,	-1,	-1,	25|
9,	-1,	-1,	-1,	30,	-1,	-1,	-1,	-1,	-1,	-1,	29,	28,	-1,	-1,	1,	20,	-1,	15,	10,	-1,	-1,	36,	5,	17,	27,	-1,	-1,	-1,	-1,	-1,	6,	11,	-1,	7,	-1|
-1,	-1,	-1,	3,	29,	-1,	-1,	-1,	-1,	14,	-1,	-1,	22,	9,	2,	12,	-1,	18,	13,	24,	-1,	30,	-1,	-1,	-1,	-1,	-1,	-1,	-1,	34,	25,	10,	32,	-1,	-1,	-1|
-1,	35,	1,	-1,	28,	-1,	30,	-1,	-1,	-1,	2,	-1,	-1,	15,	-1,	24,	-1,	-1,	7,	-1,	-1,	-1,	11,	-1,	-1,	-1,	-1,	-1,	-1,	-1,	12,	21,	-1,	-1,	-1,	36|
-1,	33,	7,	-1,	-1,	-1,	8,	10,	-1,	-1,	31,	36,	19,	-1,	-1,	21,	13,	1,	-1,	-1,	-1,	-1,	29,	-1,	-1,	-1,	-1,	27,	-1,	-1,	-1,	-1,	24,	-1,	18,	-1|
-1,	10,	21,	12,	15,	6,	-1,	-1,	5,	32,	33,	19,	26,	-1,	-1,	-1,	27,	-1,	2,	-1,	-1,	-1,	28,	-1,	14,	24,	-1,	-1,	-1,	1,	-1,	-1,	-1,	9,	3,	-1|
-1,	16,	13,	25,	14,	-1,	11,	35,	-1,	15,	21,	-1,	-1,	31,	-1,	-1,	-1,	-1,	-1,	18,	17,	-1,	-1,	1,	-1,	9,	-1,	22,	-1,	-1,	4,	23,	27,	6,	30,	-1|
-1,	23,	24,	-1,	-1,	-1,	-1,	-1,	-1,	13,	-1,	17,	-1,	25,	8,	20,	-1,	-1,	-1,	-1,	31,	-1,	-1,	22,	-1,	-1,	-1,	-1,	-1,	35,	-1,	-1,	-1,	1,	29,	2|];
